62      4       
14      19      16      19      
0       0       0       0       0       3       2       3       4       
5       1       0       0       0       3       9       12      31      
3       0       5       0       0       2       6       15      
9       0       0       9       0       3       5       8       13      
6       5       0       0       0       2       22      48      
5       0       3       0       0       3       7       11      18      
2       0       10      0       0       2       14      23      
6       0       0       2       0       3       29      50      59      
3       6       0       0       0       2       10      36      
8       0       0       2       0       3       14      38      48      
7       0       0       0       5       3       17      34      37      
8       0       6       0       0       1       49      
9       0       0       8       0       2       22      52      
4       0       0       0       2       3       16      22      37      
1       9       0       0       0       1       30      
3       0       5       0       0       2       19      29      
2       6       0       0       0       1       31      
9       0       7       0       0       3       20      24      28      
10      0       0       3       0       3       20      33      44      
2       0       9       0       0       2       21      26      
8       2       0       0       0       3       40      53      57      
1       0       0       1       0       1       60      
1       0       0       0       7       1       25      
6       0       0       0       9       2       39      44      
8       0       0       6       0       3       27      34      38      
8       0       3       0       0       2       43      55      
2       0       6       0       0       3       41      44      46      
6       0       10      0       0       2       32      40      
9       0       0       0       4       1       34      
9       0       0       0       1       3       42      43      55      
4       0       0       0       10      3       35      39      42      
7       0       8       0       0       2       41      45      
7       0       0       0       6       2       39      41      
9       0       5       0       0       2       54      58      
10      7       0       0       0       2       40      51      
4       5       0       0       0       2       47      50      
1       9       0       0       0       1       61      
6       1       0       0       0       2       43      57      
2       6       0       0       0       1       59      
10      0       0       0       5       1       45      
8       2       0       0       0       1       59      
9       8       0       0       0       2       47      52      
10      0       0       0       5       2       45      56      
4       0       0       0       7       2       49      54      
10      2       0       0       0       1       49      
8       0       0       0       4       1       51      
3       0       0       0       7       1       48      
9       0       0       7       0       1       58      
10      0       8       0       0       1       61      
6       0       0       0       2       1       53      
8       0       0       5       0       2       52      53      
5       0       0       0       5       1       56      
8       4       0       0       0       2       54      55      
6       1       0       0       0       1       56      
7       0       0       0       2       1       61      
10      0       1       0       0       1       60      
2       0       4       0       0       1       58      
7       0       0       8       0       1       60      
7       0       4       0       0       1       62      
9       7       0       0       0       1       62      
10      0       0       10      0       1       62      
0       0       0       0       0       0       